Route #1: 25 28 3 12 1 40
Route #2: 15 35 27 31 43 33 20
Route #3: 5 17 2 36 14 39 24 26 9
Route #4: 18 32 11 23 10
Route #5: 16 29 7
Route #6: 38 22 30 42 8 4
Route #7: 19 13 41 37 34 21 6
Cost 909
Time 0.07295
